c generated by sgen
p cnf 53 116
-2 -3 -4 0
-1 -3 -4 0
-1 -2 -4 0
-1 -2 -3 0
-6 -7 -8 0
-5 -7 -8 0
-5 -6 -8 0
-5 -6 -7 0
-10 -11 -12 0
-9 -11 -12 0
-9 -10 -12 0
-9 -10 -11 0
-14 -15 -16 0
-13 -15 -16 0
-13 -14 -16 0
-13 -14 -15 0
-18 -19 -20 0
-17 -19 -20 0
-17 -18 -20 0
-17 -18 -19 0
-22 -23 -24 0
-21 -23 -24 0
-21 -22 -24 0
-21 -22 -23 0
-26 -27 -28 0
-25 -27 -28 0
-25 -26 -28 0
-25 -26 -27 0
-30 -31 -32 0
-29 -31 -32 0
-29 -30 -32 0
-29 -30 -31 0
-34 -35 -36 0
-33 -35 -36 0
-33 -34 -36 0
-33 -34 -35 0
-38 -39 -40 0
-37 -39 -40 0
-37 -38 -40 0
-37 -38 -39 0
-42 -43 -44 0
-41 -43 -44 0
-41 -42 -44 0
-41 -42 -43 0
-46 -47 -48 0
-45 -47 -48 0
-45 -46 -48 0
-45 -46 -47 0
-49 -50 -51 0
-49 -50 -52 0
-49 -50 -53 0
-49 -51 -52 0
-49 -51 -53 0
-49 -52 -53 0
-50 -51 -52 0
-50 -51 -53 0
-50 -52 -53 0
-51 -52 -53 0
22 36 5 0
38 36 5 0
38 22 5 0
38 22 36 0
49 18 40 0
27 18 40 0
27 49 40 0
27 49 18 0
41 23 25 0
47 23 25 0
47 41 25 0
47 41 23 0
39 53 46 0
29 53 46 0
29 39 46 0
29 39 53 0
51 32 8 0
43 32 8 0
43 51 8 0
43 51 32 0
20 3 6 0
42 3 6 0
42 20 6 0
42 20 3 0
17 9 48 0
33 9 48 0
33 17 48 0
33 17 9 0
10 13 44 0
37 13 44 0
37 10 44 0
37 10 13 0
7 15 28 0
11 15 28 0
11 7 28 0
11 7 15 0
34 4 30 0
26 4 30 0
26 34 30 0
26 34 4 0
16 19 21 0
31 19 21 0
31 16 21 0
31 16 19 0
24 12 2 0
52 12 2 0
52 24 2 0
52 24 12 0
14 35 50 0
14 35 1 0
14 35 45 0
14 50 1 0
14 50 45 0
14 1 45 0
35 50 1 0
35 50 45 0
35 1 45 0
50 1 45 0
